unsat
( c1068
  c1071
  c1074
  c1077
  c1121
  c1122
  c1124
  c1125
  c1146
  c1237
  c1264
  c1291
  c1318
  c1345
  c1352
  c1357
  c1362
  c1367
  c1372
  c1374
  c1399
  c1406
  c1424
  c1451
  c1469
  c1496
  c1514
  c1541
  c1543
  c1547
  c1559
  c327
  c330
  c333
  c336
  c350
  c373
  c389
  c404
  c421
  c436
  c452
  c468
  c484
  c499
  c513
  c694
  c697
  c70
  c700
  c703
  c71
  c72
  c73
  c74
  c81
  c874
  c877
  c880
  c883
  c89 )
